
Gurobi 6.5.2 (linux64) logging started Mon Aug 29 10:57:51 2016

Optimize a model with 41 rows, 77 columns and 161 nonzeros
Coefficient statistics:
  Matrix range    [1e+00, 2e+00]
  Objective range [1e+00, 1e+02]
  Bounds range    [1e+00, 1e+00]
  RHS range       [1e+00, 1e+00]
Found heuristic solution: objective 919
Presolve removed 18 rows and 15 columns
Presolve time: 0.00s
Presolved: 23 rows, 62 columns, 125 nonzeros
Variable types: 0 continuous, 62 integer (62 binary)

Root relaxation: objective 7.420000e+02, 23 iterations, 0.00 seconds

    Nodes    |    Current Node    |     Objective Bounds      |     Work
 Expl Unexpl |  Obj  Depth IntInf | Incumbent    BestBd   Gap | It/Node Time

     0     0  742.00000    0    8  919.00000  742.00000  19.3%     -    0s
H    0     0                     879.0000000  742.00000  15.6%     -    0s
H    0     0                     793.0000000  742.00000  6.43%     -    0s
H    0     0                     744.0000000  742.00000  0.27%     -    0s

Cutting planes:
  Gomory: 1

Explored 0 nodes (23 simplex iterations) in 0.00 seconds
Thread count was 8 (of 8 available processors)

Optimal solution found (tolerance 1.00e-04)
Best objective 7.440000000000e+02, best bound 7.440000000000e+02, gap 0.0%
